(set-info :smt-lib-version 2.6)
(set-logic QF_UFLRA)
(set-info :source |CPAchecker with k-induction on SV-COMP14 program using MathSAT5, submitted by Philipp Wendler, http://cpachecker.sosy-lab.org|)
(set-info :category "industrial")
(set-info :status unsat)


(declare-fun |main::sn@1| () Real)
(declare-fun |main::__CPAchecker_TMP_1@1| () Real)
(declare-fun |__VERIFIER_assert::cond@1| () Real)
(define-fun _7 () Real 0)
(define-fun _21 () Real 2)
(define-fun _30 () Real 1)
(define-fun _77 () Real |main::sn@1|)
(define-fun _148 () Bool (<= _30 _77))
(define-fun _149 () Real |main::__CPAchecker_TMP_1@1|)
(define-fun _150 () Bool (= _149 _30))
(define-fun _151 () Real |__VERIFIER_assert::cond@1|)
(define-fun _152 () Bool (= _151 _30))
(define-fun _153 () Bool (and _150 _152))
(define-fun _154 () Bool (and _148 _153))
(define-fun _155 () Bool (= _77 _21))
(define-fun _156 () Bool (and _153 _155))
(define-fun _157 () Bool (= _77 _7))
(define-fun _158 () Bool (or _156 _157))
(define-fun _159 () Bool (or _154 _158))
(declare-fun |main::x@2| () Real)
(declare-fun |main::sn@2| () Real)
(declare-fun |main::__CPAchecker_TMP_1@3| () Real)
(declare-fun |__ADDRESS_OF_main::__CPAchecker_TMP_1| () Real)
(declare-fun |main::x@1| () Real)
(declare-fun |main::sn@3| () Real)
(declare-fun |__VERIFIER_assert::cond@2| () Real)
(declare-fun |main::x@3| () Real)
(declare-fun __BASE_ADDRESS_OF__ (Real) Real)
(declare-fun |main::__CPAchecker_TMP_1@5| () Real)
(declare-fun |__VERIFIER_assert::cond@3| () Real)
(define-fun _11 () Real |main::sn@2|)
(define-fun _12 () Bool (= _11 _7))
(define-fun _17 () Real |main::x@2|)
(define-fun _23 () Real |main::sn@3|)
(define-fun _24 () Real (- 2))
(define-fun _25 () Real (- 1))
(define-fun _26 () Real (* (- 1) _23))
(define-fun _27 () Real (+ _11 _26))
(define-fun _28 () Bool (= _27 _24))
(define-fun _32 () Real |main::x@3|)
(define-fun _33 () Real (* (- 1) _32))
(define-fun _34 () Real (+ _17 _33))
(define-fun _35 () Bool (= _34 _25))
(define-fun _37 () Real |__ADDRESS_OF_main::__CPAchecker_TMP_1|)
(define-fun _38 () Real (__BASE_ADDRESS_OF__ _37))
(define-fun _39 () Bool (= _37 _38))
(define-fun _42 () Real (* (- 2) _32))
(define-fun _43 () Real (+ _23 _42))
(define-fun _44 () Bool (= _43 _7))
(define-fun _47 () Bool (not _44))
(define-fun _49 () Real |main::__CPAchecker_TMP_1@3|)
(define-fun _50 () Bool (= _49 _30))
(define-fun _52 () Real |__VERIFIER_assert::cond@2|)
(define-fun _53 () Bool (= _49 _52))
(define-fun _55 () Bool (= _52 _7))
(define-fun _58 () Bool (not _55))
(define-fun _79 () Real (* (- 1) _77))
(define-fun _80 () Real (+ _11 _79))
(define-fun _81 () Bool (= _80 _21))
(define-fun _82 () Real |main::x@1|)
(define-fun _84 () Real (* (- 1) _82))
(define-fun _85 () Real (+ _17 _84))
(define-fun _86 () Bool (= _85 _30))
(define-fun _87 () Bool (and _81 _86))
(define-fun _88 () Bool (and _39 _87))
(define-fun _90 () Real (* (- 2) _17))
(define-fun _91 () Real (+ _11 _90))
(define-fun _92 () Bool (= _91 _7))
(define-fun _94 () Bool (and _88 _92))
(define-fun _95 () Bool (not _92))
(define-fun _96 () Bool (and _88 _95))
(define-fun _98 () Bool (and _12 _96))
(define-fun _99 () Bool (not _12))
(define-fun _100 () Bool (and _96 _99))
(define-fun _101 () Bool (or _94 _98))
(define-fun _102 () Bool (= _49 _7))
(define-fun _103 () Bool (and _100 _102))
(define-fun _104 () Bool (and _50 _101))
(define-fun _105 () Bool (or _103 _104))
(define-fun _106 () Bool (and _53 _105))
(define-fun _108 () Bool (and _58 _106))
(define-fun _110 () Bool (and _28 _108))
(define-fun _111 () Bool (and _35 _110))
(define-fun _112 () Bool (and _39 _111))
(define-fun _113 () Bool (and _44 _112))
(define-fun _114 () Bool (and _47 _112))
(define-fun _115 () Bool (= _23 _7))
(define-fun _117 () Bool (and _114 _115))
(define-fun _118 () Bool (not _115))
(define-fun _119 () Bool (and _114 _118))
(define-fun _120 () Bool (or _113 _117))
(define-fun _121 () Real |main::__CPAchecker_TMP_1@5|)
(define-fun _122 () Bool (= _121 _7))
(define-fun _123 () Bool (and _119 _122))
(define-fun _124 () Bool (= _121 _30))
(define-fun _125 () Bool (and _120 _124))
(define-fun _126 () Bool (or _123 _125))
(define-fun _127 () Real |__VERIFIER_assert::cond@3|)
(define-fun _128 () Bool (= _121 _127))
(define-fun _129 () Bool (and _126 _128))
(define-fun _130 () Bool (= _127 _7))
(define-fun _132 () Bool (and _129 _130))



(assert _159)

(assert _132)
(check-sat)


(exit)
